Instancias/12
c nombre: 12
c densidad: 0.1
p edges 45 97
e 1 7
e 1 10
e 2 8
e 2 9
e 2 20
e 2 21
e 2 27
e 2 43
e 3 5
e 3 11
e 3 27
e 3 34
e 3 35
e 3 43
e 4 10
e 4 14
e 4 15
e 4 18
e 4 22
e 4 27
e 4 38
e 4 41
e 4 43
e 4 45
e 5 11
e 5 20
e 5 27
e 5 39
e 6 9
e 6 19
e 6 30
e 6 32
e 6 36
e 7 15
e 7 21
e 8 10
e 8 13
e 8 28
e 8 32
e 8 39
e 9 27
e 9 36
e 9 42
e 10 18
e 10 30
e 10 41
e 11 13
e 11 35
e 11 43
e 12 23
e 12 30
e 12 34
e 13 21
e 13 44
e 14 15
e 14 40
e 14 45
e 15 22
e 15 33
e 15 34
e 15 45
e 16 22
e 16 23
e 16 31
e 16 43
e 17 23
e 18 38
e 19 26
e 19 30
e 19 34
e 19 42
e 21 23
e 21 33
e 22 26
e 22 33
e 23 40
e 24 35
e 24 39
e 25 45
e 26 32
e 26 41
e 26 44
e 27 45
e 28 34
e 28 41
e 29 36
e 31 33
e 31 42
e 33 36
e 33 39
e 33 44
e 34 43
e 35 37
e 38 41
e 39 40
e 40 42
e 40 45
