res_brown_5min/12.out
colores promedio: 8.0000
tiempo promedio: 0.4600
instancias que se pasaron del tiempo: 0
